c description: Random 3-CNF over 21 variables and 89 clauses
c generator: CNFgen (0.9.2)
c copyright: (C) 2012-2022 Massimo Lauria <massimo.lauria@uniroma1.it>
c url: https://massimolauria.net/cnfgen
c command line: cnfgen --output CNF_4.28/21_bit_89_431.cnf randkcnf 3 21 89
c
p cnf 21 89
10 11 -21 0
2 12 -21 0
-14 -15 19 0
-8 -12 -19 0
1 15 19 0
-3 -8 -12 0
6 -9 -13 0
11 -16 -20 0
2 -5 -14 0
-3 4 17 0
8 -9 13 0
18 -19 -21 0
19 -20 -21 0
15 -16 -21 0
-3 9 19 0
5 -11 20 0
5 -18 20 0
-4 -15 19 0
-3 10 -17 0
-5 -9 -19 0
-4 9 12 0
-4 9 -20 0
4 -9 20 0
1 14 -19 0
9 10 -18 0
-3 -4 13 0
-2 -3 -11 0
2 15 17 0
4 -5 8 0
-2 -8 19 0
-4 -15 17 0
1 -2 -3 0
3 -15 19 0
-3 -6 -9 0
4 -20 21 0
-4 7 -13 0
-12 20 21 0
3 10 15 0
-10 -14 -17 0
4 12 -18 0
-5 8 -17 0
-4 -9 16 0
-6 8 -18 0
7 10 -14 0
1 2 -8 0
5 -7 -21 0
-6 8 -9 0
-11 13 18 0
3 -4 19 0
-4 -8 -10 0
-6 -11 -14 0
2 -13 14 0
2 -5 13 0
-2 -11 -12 0
1 -8 20 0
-6 14 20 0
-5 18 20 0
4 -5 -19 0
3 18 -19 0
-7 -11 16 0
3 -9 -19 0
5 -11 -19 0
4 9 -21 0
-9 10 17 0
14 -17 21 0
6 8 21 0
5 9 -21 0
-1 12 15 0
-6 -17 18 0
7 -11 17 0
-5 -8 11 0
4 8 -16 0
10 15 -17 0
-10 -14 16 0
-17 -18 19 0
8 10 13 0
1 8 -13 0
-1 -3 19 0
12 -14 -20 0
15 19 -21 0
-7 -17 21 0
5 -9 -21 0
-10 -11 18 0
9 11 -17 0
-2 -8 16 0
-7 18 -19 0
12 13 19 0
-7 -10 -11 0
-5 -7 -19 0
